\ Model model6
\ LP format - for model browsing. Use MPS format to capture full model detail.
Maximize
  6 r6 - b16 - b26 - b36 - b46 - b56 - b66
Subject To
 R0: r6 - b16 <= 2
 R1: r6 - b26 <= 9
 R2: r6 - b36 <= 6
 R3: r6 - b46 <= 8
 R4: r6 - b56 <= 5
 R5: r6 - b66 <= 4
Bounds
End
